experiment/data/lkh-res/Vrp-Set-E-n76/Vrp-Set-E-n76-lkh/3.lkh1.log
PARAMETER_FILE = baseline_results/cvrp_lkh/Vrp-Set-E-n76/Vrp-Set-E-n76-lkh/3.lkh1.par
Reading PROBLEM_FILE: "baseline_results/cvrp_lkh/Vrp-Set-E-n76/Vrp-Set-E-n76-lkh/3.lkh1.vrp" ... done
ASCENT_CANDIDATES = 50
BACKBONE_TRIALS = 0
BACKTRACKING = NO
# BWTSP =
# CANDIDATE_FILE =
CANDIDATE_SET_TYPE = ALPHA
# DISTANCE =
DEPOT = 1
# EDGE_FILE =
EXCESS = 0.0131579
EXTERNAL_SALESMEN = 0
EXTRA_CANDIDATES = 0 
EXTRA_CANDIDATE_SET_TYPE = QUADRANT
GAIN23 = NO
GAIN_CRITERION = YES
INITIAL_PERIOD = 100
INITIAL_STEP_SIZE = 1
INITIAL_TOUR_ALGORITHM = WALK
# INITIAL_TOUR_FILE = 
INITIAL_TOUR_FRACTION = 1.000
# INPUT_TOUR_FILE = 
KICK_TYPE = 4
KICKS = 1
# MAX_BREADTH =
MAKESPAN = NO
MAX_CANDIDATES = 5 
MAX_SWAPS = 0
MAX_TRIALS = 10000
# MERGE_TOUR_FILE =
MOVE_TYPE = 5 SPECIAL
MTSP_MIN_SIZE = 1
MTSP_MAX_SIZE = 75
# MTSP_SOLUTION_FILE = 
# NONSEQUENTIAL_MOVE_TYPE = 5
# OPTIMUM =
OUTPUT_TOUR_FILE = baseline_results/cvrp_lkh/Vrp-Set-E-n76/Vrp-Set-E-n76-lkh/3.lkh1.tour
PATCHING_A = 1 
PATCHING_C = 0 
# PI_FILE = 
POPMUSIC_INITIAL_TOUR = NO
POPMUSIC_MAX_NEIGHBORS = 5
POPMUSIC_SAMPLE_SIZE = 10
POPMUSIC_SOLUTIONS = 50
POPMUSIC_TRIALS = 1
POPULATION_SIZE = 10
PRECISION = 100
PROBLEM_FILE = baseline_results/cvrp_lkh/Vrp-Set-E-n76/Vrp-Set-E-n76-lkh/3.lkh1.vrp
RECOMBINATION = IPT
RESTRICTED_SEARCH = YES
RUNS = 1
SALESMEN = 8
SCALE = 1
SEED = 1234
# SINTEF_SOLUTION_FILE = 
STOP_AT_OPTIMUM = YES
SUBGRADIENT = YES
# SUBPROBLEM_SIZE =
# SUBPROBLEM_TOUR_FILE = 
SUBSEQUENT_MOVE_TYPE = 5 SPECIAL
SUBSEQUENT_PATCHING = YES
# TIME_LIMIT =
# TOTAL_TIME_LIMIT =
# TOUR_FILE = 
TRACE_LEVEL = 1
VEHICLES = 8

Lower bound = 60768.4, Ascent time = 0.01 sec.
Cand.min = 5, Cand.avg = 5.0, Cand.max = 5
Preprocessing time = 0.02 sec.
* 1: Cost = 0_79231, Time = 0.01 sec. 
Writing OUTPUT_TOUR_FILE: "baseline_results/cvrp_lkh/Vrp-Set-E-n76/Vrp-Set-E-n76-lkh/3.lkh1.tour" ... done
* 2: Cost = 0_77884, Time = 0.01 sec. 
Writing OUTPUT_TOUR_FILE: "baseline_results/cvrp_lkh/Vrp-Set-E-n76/Vrp-Set-E-n76-lkh/3.lkh1.tour" ... done
* 3: Cost = 0_77477, Time = 0.02 sec. 
Writing OUTPUT_TOUR_FILE: "baseline_results/cvrp_lkh/Vrp-Set-E-n76/Vrp-Set-E-n76-lkh/3.lkh1.tour" ... done
* 11: Cost = 0_76625, Time = 0.04 sec. 
Writing OUTPUT_TOUR_FILE: "baseline_results/cvrp_lkh/Vrp-Set-E-n76/Vrp-Set-E-n76-lkh/3.lkh1.tour" ... done
* 12: Cost = 0_75484, Time = 0.04 sec. 
Writing OUTPUT_TOUR_FILE: "baseline_results/cvrp_lkh/Vrp-Set-E-n76/Vrp-Set-E-n76-lkh/3.lkh1.tour" ... done
* 31: Cost = 0_75123, Time = 0.11 sec. 
Writing OUTPUT_TOUR_FILE: "baseline_results/cvrp_lkh/Vrp-Set-E-n76/Vrp-Set-E-n76-lkh/3.lkh1.tour" ... done
* 37: Cost = 0_74949, Time = 0.12 sec. 
Writing OUTPUT_TOUR_FILE: "baseline_results/cvrp_lkh/Vrp-Set-E-n76/Vrp-Set-E-n76-lkh/3.lkh1.tour" ... done
* 224: Cost = 0_74759, Time = 0.50 sec. 
Writing OUTPUT_TOUR_FILE: "baseline_results/cvrp_lkh/Vrp-Set-E-n76/Vrp-Set-E-n76-lkh/3.lkh1.tour" ... done
* 511: Cost = 0_74711, Time = 1.04 sec. 
Writing OUTPUT_TOUR_FILE: "baseline_results/cvrp_lkh/Vrp-Set-E-n76/Vrp-Set-E-n76-lkh/3.lkh1.tour" ... done
* 533: Cost = 0_74550, Time = 1.08 sec. 
Writing OUTPUT_TOUR_FILE: "baseline_results/cvrp_lkh/Vrp-Set-E-n76/Vrp-Set-E-n76-lkh/3.lkh1.tour" ... done
* 559: Cost = 0_74503, Time = 1.12 sec. 
Writing OUTPUT_TOUR_FILE: "baseline_results/cvrp_lkh/Vrp-Set-E-n76/Vrp-Set-E-n76-lkh/3.lkh1.tour" ... done
* 1041: Cost = 0_74490, Time = 2.11 sec. 
Writing OUTPUT_TOUR_FILE: "baseline_results/cvrp_lkh/Vrp-Set-E-n76/Vrp-Set-E-n76-lkh/3.lkh1.tour" ... done
* 1085: Cost = 0_74484, Time = 2.22 sec. 
Writing OUTPUT_TOUR_FILE: "baseline_results/cvrp_lkh/Vrp-Set-E-n76/Vrp-Set-E-n76-lkh/3.lkh1.tour" ... done
* 1107: Cost = 0_74467, Time = 2.27 sec. 
Writing OUTPUT_TOUR_FILE: "baseline_results/cvrp_lkh/Vrp-Set-E-n76/Vrp-Set-E-n76-lkh/3.lkh1.tour" ... done
* 6623: Cost = 0_74455, Time = 12.30 sec. 
Writing OUTPUT_TOUR_FILE: "baseline_results/cvrp_lkh/Vrp-Set-E-n76/Vrp-Set-E-n76-lkh/3.lkh1.tour" ... done
* 7174: Cost = 0_74296, Time = 13.52 sec. 
Writing OUTPUT_TOUR_FILE: "baseline_results/cvrp_lkh/Vrp-Set-E-n76/Vrp-Set-E-n76-lkh/3.lkh1.tour" ... done
Population:
  1: 0_74296
Run 1: Cost = 0_74296, Time = 20.22 sec. 

Successes/Runs = 0/1 
Cost.min = 74296, Cost.avg = 74296.00, Cost.max = 74296
Gap.min = 0.0000%, Gap.avg = 0.0000%, Gap.max = 0.0000%
Penalty.min = 0, Penalty.avg = 0.00, Penalty.max = 0
Trials.min = 10000, Trials.avg = 10000.0, Trials.max = 10000
Time.min = 20.22 sec., Time.avg = 20.22 sec., Time.max = 20.22 sec.
Time.total = 20.24 sec.
  Size.min = 5, Size.max = 13, Penalty = 0
  Cost.min = 2909, Cost.max = 12033, Cost.sum = 74296
Best CVRP solution:
  Cost = 0_74296

