experiment/data/lkh-res/Vrp-Set-E-n76/Vrp-Set-E-n76-lkh/3.lkh1.tour
NAME : 3.74296.tour
COMMENT : Length = 74296
COMMENT : Found by LKH-3 [Keld Helsgaun] Tue Apr  9 01:53:48 2024
TYPE : TOUR
DIMENSION : 83
TOUR_SECTION
1
28
58
16
38
21
71
61
72
70
37
6
30
46
83
76
5
35
47
68
77
31
49
48
22
62
29
75
3
69
80
41
33
19
25
50
57
24
64
17
52
79
13
73
40
10
32
56
26
51
45
4
18
81
7
34
74
2
44
42
43
65
23
63
82
59
11
39
66
67
12
36
9
78
27
8
54
15
60
20
55
14
53
-1
EOF
